\ Model sudoku
\ LP format - for model browsing. Use MPS format to capture full model detail.
Minimize
 
Subject To
 V[0,0]: G[0,0,0] + G[1,0,0] + G[2,0,0] + G[3,0,0] = 1
 V[0,1]: G[0,0,1] + G[1,0,1] + G[2,0,1] + G[3,0,1] = 1
 V[0,2]: G[0,0,2] + G[1,0,2] + G[2,0,2] + G[3,0,2] = 1
 V[0,3]: G[0,0,3] + G[1,0,3] + G[2,0,3] + G[3,0,3] = 1
 V[1,0]: G[0,1,0] + G[1,1,0] + G[2,1,0] + G[3,1,0] = 1
 V[1,1]: G[0,1,1] + G[1,1,1] + G[2,1,1] + G[3,1,1] = 1
 V[1,2]: G[0,1,2] + G[1,1,2] + G[2,1,2] + G[3,1,2] = 1
 V[1,3]: G[0,1,3] + G[1,1,3] + G[2,1,3] + G[3,1,3] = 1
 V[2,0]: G[0,2,0] + G[1,2,0] + G[2,2,0] + G[3,2,0] = 1
 V[2,1]: G[0,2,1] + G[1,2,1] + G[2,2,1] + G[3,2,1] = 1
 V[2,2]: G[0,2,2] + G[1,2,2] + G[2,2,2] + G[3,2,2] = 1
 V[2,3]: G[0,2,3] + G[1,2,3] + G[2,2,3] + G[3,2,3] = 1
 V[3,0]: G[0,3,0] + G[1,3,0] + G[2,3,0] + G[3,3,0] = 1
 V[3,1]: G[0,3,1] + G[1,3,1] + G[2,3,1] + G[3,3,1] = 1
 V[3,2]: G[0,3,2] + G[1,3,2] + G[2,3,2] + G[3,3,2] = 1
 V[3,3]: G[0,3,3] + G[1,3,3] + G[2,3,3] + G[3,3,3] = 1
 V[0,0]: G[0,0,0] + G[0,1,0] + G[0,2,0] + G[0,3,0] = 1
 V[0,1]: G[0,0,1] + G[0,1,1] + G[0,2,1] + G[0,3,1] = 1
 V[0,2]: G[0,0,2] + G[0,1,2] + G[0,2,2] + G[0,3,2] = 1
 V[0,3]: G[0,0,3] + G[0,1,3] + G[0,2,3] + G[0,3,3] = 1
 V[1,0]: G[1,0,0] + G[1,1,0] + G[1,2,0] + G[1,3,0] = 1
 V[1,1]: G[1,0,1] + G[1,1,1] + G[1,2,1] + G[1,3,1] = 1
 V[1,2]: G[1,0,2] + G[1,1,2] + G[1,2,2] + G[1,3,2] = 1
 V[1,3]: G[1,0,3] + G[1,1,3] + G[1,2,3] + G[1,3,3] = 1
 V[2,0]: G[2,0,0] + G[2,1,0] + G[2,2,0] + G[2,3,0] = 1
 V[2,1]: G[2,0,1] + G[2,1,1] + G[2,2,1] + G[2,3,1] = 1
 V[2,2]: G[2,0,2] + G[2,1,2] + G[2,2,2] + G[2,3,2] = 1
 V[2,3]: G[2,0,3] + G[2,1,3] + G[2,2,3] + G[2,3,3] = 1
 V[3,0]: G[3,0,0] + G[3,1,0] + G[3,2,0] + G[3,3,0] = 1
 V[3,1]: G[3,0,1] + G[3,1,1] + G[3,2,1] + G[3,3,1] = 1
 V[3,2]: G[3,0,2] + G[3,1,2] + G[3,2,2] + G[3,3,2] = 1
 V[3,3]: G[3,0,3] + G[3,1,3] + G[3,2,3] + G[3,3,3] = 1
 V[0,0]: G[0,0,0] + G[0,0,1] + G[0,0,2] + G[0,0,3] = 1
 V[0,1]: G[0,1,0] + G[0,1,1] + G[0,1,2] + G[0,1,3] = 1
 V[0,2]: G[0,2,0] + G[0,2,1] + G[0,2,2] + G[0,2,3] = 1
 V[0,3]: G[0,3,0] + G[0,3,1] + G[0,3,2] + G[0,3,3] = 1
 V[1,0]: G[1,0,0] + G[1,0,1] + G[1,0,2] + G[1,0,3] = 1
 V[1,1]: G[1,1,0] + G[1,1,1] + G[1,1,2] + G[1,1,3] = 1
 V[1,2]: G[1,2,0] + G[1,2,1] + G[1,2,2] + G[1,2,3] = 1
 V[1,3]: G[1,3,0] + G[1,3,1] + G[1,3,2] + G[1,3,3] = 1
 V[2,0]: G[2,0,0] + G[2,0,1] + G[2,0,2] + G[2,0,3] = 1
 V[2,1]: G[2,1,0] + G[2,1,1] + G[2,1,2] + G[2,1,3] = 1
 V[2,2]: G[2,2,0] + G[2,2,1] + G[2,2,2] + G[2,2,3] = 1
 V[2,3]: G[2,3,0] + G[2,3,1] + G[2,3,2] + G[2,3,3] = 1
 V[3,0]: G[3,0,0] + G[3,0,1] + G[3,0,2] + G[3,0,3] = 1
 V[3,1]: G[3,1,0] + G[3,1,1] + G[3,1,2] + G[3,1,3] = 1
 V[3,2]: G[3,2,0] + G[3,2,1] + G[3,2,2] + G[3,2,3] = 1
 V[3,3]: G[3,3,0] + G[3,3,1] + G[3,3,2] + G[3,3,3] = 1
 Sub[0,0,0]: G[0,0,0] + G[0,1,0] + G[1,0,0] + G[1,1,0] = 1
 Sub[0,0,1]: G[0,2,0] + G[0,3,0] + G[1,2,0] + G[1,3,0] = 1
 Sub[0,1,0]: G[2,0,0] + G[2,1,0] + G[3,0,0] + G[3,1,0] = 1
 Sub[0,1,1]: G[2,2,0] + G[2,3,0] + G[3,2,0] + G[3,3,0] = 1
 Sub[1,0,0]: G[0,0,1] + G[0,1,1] + G[1,0,1] + G[1,1,1] = 1
 Sub[1,0,1]: G[0,2,1] + G[0,3,1] + G[1,2,1] + G[1,3,1] = 1
 Sub[1,1,0]: G[2,0,1] + G[2,1,1] + G[3,0,1] + G[3,1,1] = 1
 Sub[1,1,1]: G[2,2,1] + G[2,3,1] + G[3,2,1] + G[3,3,1] = 1
 Sub[2,0,0]: G[0,0,2] + G[0,1,2] + G[1,0,2] + G[1,1,2] = 1
 Sub[2,0,1]: G[0,2,2] + G[0,3,2] + G[1,2,2] + G[1,3,2] = 1
 Sub[2,1,0]: G[2,0,2] + G[2,1,2] + G[3,0,2] + G[3,1,2] = 1
 Sub[2,1,1]: G[2,2,2] + G[2,3,2] + G[3,2,2] + G[3,3,2] = 1
 Sub[3,0,0]: G[0,0,3] + G[0,1,3] + G[1,0,3] + G[1,1,3] = 1
 Sub[3,0,1]: G[0,2,3] + G[0,3,3] + G[1,2,3] + G[1,3,3] = 1
 Sub[3,1,0]: G[2,0,3] + G[2,1,3] + G[3,0,3] + G[3,1,3] = 1
 Sub[3,1,1]: G[2,2,3] + G[2,3,3] + G[3,2,3] + G[3,3,3] = 1
Bounds
 G[0,1,1] = 1
 G[0,2,2] = 1
 G[1,0,0] = 1
 G[1,3,1] = 1
 G[2,0,1] = 1
 G[2,2,0] = 1
 G[3,1,0] = 1
 G[3,3,3] = 1
Binaries
 G[0,0,0] G[0,0,1] G[0,0,2] G[0,0,3] G[0,1,0] G[0,1,1] G[0,1,2] G[0,1,3]
 G[0,2,0] G[0,2,1] G[0,2,2] G[0,2,3] G[0,3,0] G[0,3,1] G[0,3,2] G[0,3,3]
 G[1,0,0] G[1,0,1] G[1,0,2] G[1,0,3] G[1,1,0] G[1,1,1] G[1,1,2] G[1,1,3]
 G[1,2,0] G[1,2,1] G[1,2,2] G[1,2,3] G[1,3,0] G[1,3,1] G[1,3,2] G[1,3,3]
 G[2,0,0] G[2,0,1] G[2,0,2] G[2,0,3] G[2,1,0] G[2,1,1] G[2,1,2] G[2,1,3]
 G[2,2,0] G[2,2,1] G[2,2,2] G[2,2,3] G[2,3,0] G[2,3,1] G[2,3,2] G[2,3,3]
 G[3,0,0] G[3,0,1] G[3,0,2] G[3,0,3] G[3,1,0] G[3,1,1] G[3,1,2] G[3,1,3]
 G[3,2,0] G[3,2,1] G[3,2,2] G[3,2,3] G[3,3,0] G[3,3,1] G[3,3,2] G[3,3,3]
End
